c FILE /home/rafael/Documents/HappySet/MIHS/inputs/happygen/output/graph_scale_free_k3_p0.2_v50_20241127_082411.txt
c SOURCE This is a scale-free graph formed for the happy graph colouring problem.
c DESCRIPTION It was generated using the problem generator of Rhyd Lewis
c
c GRAPH STATS
c Seed                             = -278790615
c Number of Nodes                  = 50
c Number of colours k              = 3
c Number of pre-assignments        = 10
c Number of links per new node     = 5
c Density                          = 0.191837
c 
c The degrees of nodes 1 to 50, respectively, are as follows 
c [26, 25, 22, 21, 21, 20, 20, 18, 14, 12, 12, 11, 10, 10, 9, 9, 9, 8, 8, 8, 8, 8, 7, 7, 7, 7, 
c  7, 7, 6, 6, 6, 6, 6, 6, 6, 6, 6, 5, 5, 5, 5, 5, 5, 5, 5, 5, 5, 5, 5, 5] 
c  
p edge 50 235 3
e 1 2
e 1 3
e 1 5
e 1 7
e 1 8
e 1 10
e 1 11
e 1 13
e 1 14
e 1 15
e 1 17
e 1 18
e 1 19
e 1 20
e 1 25
e 1 26
e 1 27
e 1 28
e 1 29
e 1 33
e 1 35
e 1 36
e 1 41
e 1 42
e 1 47
e 1 50
e 2 3
e 2 4
e 2 5
e 2 6
e 2 7
e 2 8
e 2 9
e 2 11
e 2 13
e 2 14
e 2 15
e 2 18
e 2 23
e 2 24
e 2 25
e 2 27
e 2 28
e 2 30
e 2 32
e 2 35
e 2 36
e 2 46
e 2 48
e 2 49
e 3 4
e 3 6
e 3 7
e 3 8
e 3 10
e 3 12
e 3 14
e 3 16
e 3 18
e 3 20
e 3 23
e 3 27
e 3 28
e 3 29
e 3 31
e 3 32
e 3 36
e 3 38
e 3 45
e 3 49
e 4 5
e 4 6
e 4 7
e 4 8
e 4 9
e 4 11
e 4 13
e 4 18
e 4 23
e 4 24
e 4 26
e 4 29
e 4 30
e 4 31
e 4 40
e 4 42
e 4 45
e 4 46
e 4 49
e 5 6
e 5 7
e 5 8
e 5 9
e 5 10
e 5 14
e 5 15
e 5 16
e 5 20
e 5 22
e 5 23
e 5 25
e 5 26
e 5 31
e 5 39
e 5 41
e 5 43
e 5 45
e 6 7
e 6 8
e 6 10
e 6 12
e 6 13
e 6 14
e 6 20
e 6 22
e 6 30
e 6 31
e 6 36
e 6 37
e 6 40
e 6 41
e 6 43
e 6 50
e 7 8
e 7 13
e 7 15
e 7 16
e 7 19
e 7 20
e 7 23
e 7 24
e 7 25
e 7 31
e 7 41
e 7 44
e 7 46
e 7 47
e 8 9
e 8 10
e 8 12
e 8 15
e 8 16
e 8 21
e 8 33
e 8 35
e 8 37
e 8 40
e 8 43
e 9 10
e 9 19
e 9 22
e 9 24
e 9 29
e 9 32
e 9 34
e 9 44
e 9 46
e 9 48
e 10 12
e 10 16
e 10 18
e 10 19
e 10 43
e 10 46
e 11 12
e 11 14
e 11 16
e 11 22
e 11 26
e 11 32
e 11 33
e 11 39
e 11 47
e 12 17
e 12 21
e 12 37
e 12 38
e 12 40
e 12 45
e 13 19
e 13 24
e 13 34
e 13 45
e 13 50
e 14 21
e 14 27
e 14 38
e 14 44
e 15 22
e 15 29
e 15 30
e 15 48
e 16 17
e 16 37
e 16 44
e 17 18
e 17 23
e 17 26
e 17 28
e 17 32
e 17 33
e 18 25
e 18 44
e 19 33
e 19 35
e 19 42
e 20 21
e 20 39
e 20 50
e 21 23
e 21 30
e 21 35
e 21 39
e 22 27
e 22 40
e 22 41
e 24 38
e 24 47
e 25 34
e 25 42
e 26 34
e 26 42
e 27 28
e 27 48
e 28 43
e 28 49
e 29 34
e 30 38
e 31 39
e 32 37
e 33 48
e 34 36
e 35 47
e 36 50
e 37 49
n 6 3
n 9 3
n 17 2
n 23 2
n 31 3
n 35 2
n 42 1
n 44 3
n 46 3
n 49 1
